
Gurobi 11.0.0 (win64) logging started Wed Jul 30 02:58:37 2025

Set parameter LogFile to value "C:\Users\mahu123a\Documents\3l-cvrp-heuristic\data/output/3l-cvrp/all-constraints-heuristic-basic/2025-07-30_02-58-37/BinPackLowerBound.log"

Gurobi 11.0.0 (win64) logging started Wed Jul 30 02:58:38 2025

Set parameter LogFile to value "C:\Users\mahu123a\Documents\3l-cvrp-heuristic\data/output/3l-cvrp/all-constraints-heuristic-basic/2025-07-30_02-58-37/BinPackLowerBound.log"
